27 98 5 59 31 36 38 22 15 40 79 89 61 69 12 72 74 41 94 49 68 54 35 56 17 60 13 
63 47 76 88 64 11 7 18 53 21 90 65 73 83 10 9 100 91 26 55 4 37 93 58 80 
39 19 52 45 30 51 67 14 97 32 
62 99 92 42 84 44 33 87 85 75 20 34 78 77 70 46 66 24 25 
29 2 71 16 82 8 6 57 28 86 23 95 3 81 96 50 43 1 48 

